problems/VanDerWaerdenNumbers/VanDerWaerden-models/noch/O2/lingeling/model_2-k3l4n32-solution000001.eprime-solution
language ESSENCE' 1.0

letting p_PartitionAsSet_ExplicitR6_ExplicitVarSizeWithDummy be
        [[1, 13, 15, 18, 19, 20, 23, 24, 29, 33, 33, 33, 33, 33, 33, 33, 33, 33, 33, 33, 33, 33, 33, 33, 33, 33, 33, 33,
          33, 33, 33, 33; int(1..32)],
         [2, 3, 4, 8, 11, 16, 22, 28, 33, 33, 33, 33, 33, 33, 33, 33, 33, 33, 33, 33, 33, 33, 33, 33, 33, 33, 33, 33,
          33, 33, 33, 33; int(1..32)],
         [5, 6, 7, 9, 10, 12, 14, 17, 21, 25, 26, 27, 30, 31, 32, 33, 33, 33, 33, 33, 33, 33, 33, 33, 33, 33, 33, 33,
          33, 33, 33, 33; int(1..32)]; int(1..3)]
