problems/VanDerWaerdenNumbers/VanDerWaerden-models/noch/O2/lingeling/model_2-k3l4n32-solution000001.solution
language Essence 1.3

letting p be
        partition({1, 13, 15, 18, 19, 20, 23, 24, 29}, {2, 3, 4, 8, 11, 16, 22, 28},
                  {5, 6, 7, 9, 10, 12, 14, 17, 21, 25, 26, 27, 30, 31, 32})
